17	6	13	17	16	9	20	4	15	9	11	4	20	16	1	10	19	7	4	12
1	15	14	14	14	9	12	9	18	6	10	1	15	1	20	10	8	17	20	12
8	7	11	5	13	6	10	17	20	14	16	20	19	2	14	19	11	17	2	20
13	17	9	19	13	8	17	1	7	16	8	20	2	12	6	10	1	10	9	2
6	18	3	10	7	4	9	20	2	15	17	17	15	7	6	5	5	1	1	14
16	15	16	6	16	1	5	7	10	18	4	9	20	19	16	2	8	4	18	17
6	5	9	18	11	17	12	15	4	12	14	10	10	10	11	10	14	16	18	9
14	1	17	6	5	1	5	20	5	3	5	8	2	18	17	6	10	13	19	19
15	7	16	4	15	17	10	4	15	7	13	14	4	5	12	7	16	19	8	8
